Route #1: 10 19 42 3 45 39 5 18 25
Route #2: 29 21 60 46 7
Route #3: 30 38 4 13 36
Route #4: 8 27 35 6 2 41
Route #5: 52 17 20 48
Route #6: 43 59 12 9 1 49 56
Route #7: 28 31 51 22 58 23 24
Route #8: 55 33 37 16
Route #9: 26 62 50 44 47 34 11 32 57
Route #10: 15 61 54 14 53 40
cost 1515.1910400390625